p cnf 959 2460
51 -692 -693 0
-51 692 0
-51 693 0
52 -51 -694 0
-52 51 0
-52 694 0
53 -5 -4 0
-53 5 0
-53 4 0
54 -53 -6 0
-54 53 0
-54 6 0
55 -695 -696 0
-55 695 0
-55 696 0
56 -7 -5 0
-56 7 0
-56 5 0
57 -56 -8 0
-57 56 0
-57 8 0
58 -697 -55 0
-58 697 0
-58 55 0
59 -10 -698 0
-59 10 0
-59 698 0
60 -59 -699 0
-60 59 0
-60 699 0
61 -700 -58 0
-61 700 0
-61 58 0
62 -701 -702 0
-62 701 0
-62 702 0
63 -62 -703 0
-63 62 0
-63 703 0
64 -704 -61 0
-64 704 0
-64 61 0
65 -14 -705 0
-65 14 0
-65 705 0
66 -65 -706 0
-66 65 0
-66 706 0
67 -707 -64 0
-67 707 0
-67 64 0
68 -17 -16 0
-68 17 0
-68 16 0
69 -68 -18 0
-69 68 0
-69 18 0
70 -708 -67 0
-70 708 0
-70 67 0
71 -19 -702 0
-71 19 0
-71 702 0
72 -71 -709 0
-72 71 0
-72 709 0
73 -710 -70 0
-73 710 0
-73 70 0
74 -21 -19 0
-74 21 0
-74 19 0
75 -74 -22 0
-75 74 0
-75 22 0
76 -711 -73 0
-76 711 0
-76 73 0
77 -23 -1 0
-77 23 0
-77 1 0
78 -77 -24 0
-78 77 0
-78 24 0
79 -712 -76 0
-79 712 0
-79 76 0
80 -713 -7 0
-80 713 0
-80 7 0
81 -80 -15 0
-81 80 0
-81 15 0
82 -714 -79 0
-82 714 0
-82 79 0
83 -715 -716 0
-83 715 0
-83 716 0
84 -83 -28 0
-84 83 0
-84 28 0
85 -717 -82 0
-85 717 0
-85 82 0
86 -718 -719 0
-86 718 0
-86 719 0
87 -86 -6 0
-87 86 0
-87 6 0
88 -720 -85 0
-88 720 0
-88 85 0
89 -31 -721 0
-89 31 0
-89 721 0
90 -89 -15 0
-90 89 0
-90 15 0
91 -722 -88 0
-91 722 0
-91 88 0
92 -32 -723 0
-92 32 0
-92 723 0
93 -92 -724 0
-93 92 0
-93 724 0
94 -725 -91 0
-94 725 0
-94 91 0
95 -726 -727 0
-95 726 0
-95 727 0
96 -95 -35 0
-96 95 0
-96 35 0
97 -728 -94 0
-97 728 0
-97 94 0
98 -729 -19 0
-98 729 0
-98 19 0
99 -98 -730 0
-99 98 0
-99 730 0
100 -731 -97 0
-100 731 0
-100 97 0
101 -719 -693 0
-101 719 0
-101 693 0
102 -101 -713 0
-102 101 0
-102 713 0
103 -732 -100 0
-103 732 0
-103 100 0
104 -715 -733 0
-104 715 0
-104 733 0
105 -104 -12 0
-105 104 0
-105 12 0
106 -734 -103 0
-106 734 0
-106 103 0
107 -735 -22 0
-107 735 0
-107 22 0
108 -107 -724 0
-108 107 0
-108 724 0
109 -736 -106 0
-109 736 0
-109 106 0
110 -37 -5 0
-110 37 0
-110 5 0
111 -110 -8 0
-111 110 0
-111 8 0
112 -737 -109 0
-112 737 0
-112 109 0
113 -738 -13 0
-113 738 0
-113 13 0
114 -113 -14 0
-114 113 0
-114 14 0
115 -739 -112 0
-115 739 0
-115 112 0
116 -38 -740 0
-116 38 0
-116 740 0
117 -116 -741 0
-117 116 0
-117 741 0
118 -742 -115 0
-118 742 0
-118 115 0
119 -743 -25 0
-119 743 0
-119 25 0
120 -119 -730 0
-120 119 0
-120 730 0
121 -744 -118 0
-121 744 0
-121 118 0
122 -32 -733 0
-122 32 0
-122 733 0
123 -122 -745 0
-123 122 0
-123 745 0
124 -746 -121 0
-124 746 0
-124 121 0
125 -735 -709 0
-125 735 0
-125 709 0
126 -125 -694 0
-126 125 0
-126 694 0
127 -747 -124 0
-127 747 0
-127 124 0
128 -41 -27 0
-128 41 0
-128 27 0
129 -128 -12 0
-129 128 0
-129 12 0
130 -748 -127 0
-130 748 0
-130 127 0
131 -26 -13 0
-131 26 0
-131 13 0
132 -131 -749 0
-132 131 0
-132 749 0
133 -750 -130 0
-133 750 0
-133 130 0
134 -738 -751 0
-134 738 0
-134 751 0
135 -134 -5 0
-135 134 0
-135 5 0
136 -752 -133 0
-136 752 0
-136 133 0
137 -42 -10 0
-137 42 0
-137 10 0
138 -137 -715 0
-138 137 0
-138 715 0
139 -753 -136 0
-139 753 0
-139 136 0
140 -735 -749 0
-140 735 0
-140 749 0
141 -140 -730 0
-141 140 0
-141 730 0
142 -754 -139 0
-142 754 0
-142 139 0
143 -755 -729 0
-143 755 0
-143 729 0
144 -143 -25 0
-144 143 0
-144 25 0
145 -756 -142 0
-145 756 0
-145 142 0
146 -34 -13 0
-146 34 0
-146 13 0
147 -146 -11 0
-147 146 0
-147 11 0
148 -757 -145 0
-148 757 0
-148 145 0
149 -758 -11 0
-149 758 0
-149 11 0
150 -149 -22 0
-150 149 0
-150 22 0
151 -759 -148 0
-151 759 0
-151 148 0
152 -760 -693 0
-152 760 0
-152 693 0
153 -152 -7 0
-153 152 0
-153 7 0
154 -761 -151 0
-154 761 0
-154 151 0
155 -31 -705 0
-155 31 0
-155 705 0
156 -155 -20 0
-156 155 0
-156 20 0
157 -762 -154 0
-157 762 0
-157 154 0
158 -43 -715 0
-158 43 0
-158 715 0
159 -158 -44 0
-159 158 0
-159 44 0
160 -763 -157 0
-160 763 0
-160 157 0
161 -723 -733 0
-161 723 0
-161 733 0
162 -161 -749 0
-162 161 0
-162 749 0
163 -764 -160 0
-163 764 0
-163 160 0
164 -726 -22 0
-164 726 0
-164 22 0
165 -164 -28 0
-165 164 0
-165 28 0
166 -765 -163 0
-166 765 0
-166 163 0
167 -10 -766 0
-167 10 0
-167 766 0
168 -167 -12 0
-168 167 0
-168 12 0
169 -767 -166 0
-169 767 0
-169 166 0
170 -36 -699 0
-170 36 0
-170 699 0
171 -170 -25 0
-171 170 0
-171 25 0
172 -768 -169 0
-172 768 0
-172 169 0
173 -23 -705 0
-173 23 0
-173 705 0
174 -173 -15 0
-174 173 0
-174 15 0
175 -769 -172 0
-175 769 0
-175 172 0
176 -24 -694 0
-176 24 0
-176 694 0
177 -176 -703 0
-177 176 0
-177 703 0
178 -770 -175 0
-178 770 0
-178 175 0
179 -718 -771 0
-179 718 0
-179 771 0
180 -179 -15 0
-180 179 0
-180 15 0
181 -772 -178 0
-181 772 0
-181 178 0
182 -34 -9 0
-182 34 0
-182 9 0
183 -182 -45 0
-183 182 0
-183 45 0
184 -773 -181 0
-184 773 0
-184 181 0
185 -727 -5 0
-185 727 0
-185 5 0
186 -185 -774 0
-186 185 0
-186 774 0
187 -775 -184 0
-187 775 0
-187 184 0
188 -776 -740 0
-188 776 0
-188 740 0
189 -188 -1 0
-189 188 0
-189 1 0
190 -777 -187 0
-190 777 0
-190 187 0
191 -778 -8 0
-191 778 0
-191 8 0
192 -191 -28 0
-192 191 0
-192 28 0
193 -779 -190 0
-193 779 0
-193 190 0
194 -22 -2 0
-194 22 0
-194 2 0
195 -194 -724 0
-195 194 0
-195 724 0
196 -780 -193 0
-196 780 0
-196 193 0
197 -781 -694 0
-197 781 0
-197 694 0
198 -197 -45 0
-198 197 0
-198 45 0
199 -782 -196 0
-199 782 0
-199 196 0
200 -783 -34 0
-200 783 0
-200 34 0
201 -200 -784 0
-201 200 0
-201 784 0
202 -785 -199 0
-202 785 0
-202 199 0
203 -726 -692 0
-203 726 0
-203 692 0
204 -203 -786 0
-204 203 0
-204 786 0
205 -787 -202 0
-205 787 0
-205 202 0
206 -49 -778 0
-206 49 0
-206 778 0
207 -206 -2 0
-207 206 0
-207 2 0
208 -788 -205 0
-208 788 0
-208 205 0
209 -723 -751 0
-209 723 0
-209 751 0
210 -209 -786 0
-210 209 0
-210 786 0
211 -789 -208 0
-211 789 0
-211 208 0
212 -743 -713 0
-212 743 0
-212 713 0
213 -212 -8 0
-213 212 0
-213 8 0
214 -790 -211 0
-214 790 0
-214 211 0
215 -36 -1 0
-215 36 0
-215 1 0
216 -215 -694 0
-216 215 0
-216 694 0
217 -791 -214 0
-217 791 0
-217 214 0
218 -34 -26 0
-218 34 0
-218 26 0
219 -218 -706 0
-219 218 0
-219 706 0
220 -792 -217 0
-220 792 0
-220 217 0
221 -706 -698 0
-221 706 0
-221 698 0
222 -221 -28 0
-222 221 0
-222 28 0
223 -793 -220 0
-223 793 0
-223 220 0
224 -705 -5 0
-224 705 0
-224 5 0
225 -224 -33 0
-225 224 0
-225 33 0
226 -794 -223 0
-226 794 0
-226 223 0
227 -37 -703 0
-227 37 0
-227 703 0
228 -227 -706 0
-228 227 0
-228 706 0
229 -795 -226 0
-229 795 0
-229 226 0
230 -42 -692 0
-230 42 0
-230 692 0
231 -230 -22 0
-231 230 0
-231 22 0
232 -796 -229 0
-232 796 0
-232 229 0
233 -11 -702 0
-233 11 0
-233 702 0
234 -233 -44 0
-234 233 0
-234 44 0
235 -797 -232 0
-235 797 0
-235 232 0
236 -35 -19 0
-236 35 0
-236 19 0
237 -236 -724 0
-237 236 0
-237 724 0
238 -798 -235 0
-238 798 0
-238 235 0
239 -50 -760 0
-239 50 0
-239 760 0
240 -239 -702 0
-240 239 0
-240 702 0
241 -799 -238 0
-241 799 0
-241 238 0
242 -758 -766 0
-242 758 0
-242 766 0
243 -242 -18 0
-243 242 0
-243 18 0
244 -800 -241 0
-244 800 0
-244 241 0
245 -41 -21 0
-245 41 0
-245 21 0
246 -245 -47 0
-246 245 0
-246 47 0
247 -801 -244 0
-247 801 0
-247 244 0
248 -783 -20 0
-248 783 0
-248 20 0
249 -248 -26 0
-249 248 0
-249 26 0
250 -802 -247 0
-250 802 0
-250 247 0
251 -45 -30 0
-251 45 0
-251 30 0
252 -251 -774 0
-252 251 0
-252 774 0
253 -803 -250 0
-253 803 0
-253 250 0
254 -743 -9 0
-254 743 0
-254 9 0
255 -254 -35 0
-255 254 0
-255 35 0
256 -804 -253 0
-256 804 0
-256 253 0
257 -42 -733 0
-257 42 0
-257 733 0
258 -257 -5 0
-258 257 0
-258 5 0
259 -805 -256 0
-259 805 0
-259 256 0
260 -755 -806 0
-260 755 0
-260 806 0
261 -260 -44 0
-261 260 0
-261 44 0
262 -807 -259 0
-262 807 0
-262 259 0
263 -727 -11 0
-263 727 0
-263 11 0
264 -263 -703 0
-264 263 0
-264 703 0
265 -808 -262 0
-265 808 0
-265 262 0
266 -37 -21 0
-266 37 0
-266 21 0
267 -266 -718 0
-267 266 0
-267 718 0
268 -809 -265 0
-268 809 0
-268 265 0
269 -38 -766 0
-269 38 0
-269 766 0
270 -269 -6 0
-270 269 0
-270 6 0
271 -810 -268 0
-271 810 0
-271 268 0
272 -701 -2 0
-272 701 0
-272 2 0
273 -272 -6 0
-273 272 0
-273 6 0
274 -811 -271 0
-274 811 0
-274 271 0
275 -41 -740 0
-275 41 0
-275 740 0
276 -275 -694 0
-276 275 0
-276 694 0
277 -812 -274 0
-277 812 0
-277 274 0
278 -49 -14 0
-278 49 0
-278 14 0
279 -278 -776 0
-279 278 0
-279 776 0
280 -813 -277 0
-280 813 0
-280 277 0
281 -176 -814 0
-281 176 0
-281 814 0
282 -815 -280 0
-282 815 0
-282 280 0
283 -29 -709 0
-283 29 0
-283 709 0
284 -283 -25 0
-284 283 0
-284 25 0
285 -816 -282 0
-285 816 0
-285 282 0
286 -745 -30 0
-286 745 0
-286 30 0
287 -286 -33 0
-287 286 0
-287 33 0
288 -817 -285 0
-288 817 0
-288 285 0
289 -42 -738 0
-289 42 0
-289 738 0
290 -289 -730 0
-290 289 0
-290 730 0
291 -818 -288 0
-291 818 0
-291 288 0
292 -46 -705 0
-292 46 0
-292 705 0
293 -292 -693 0
-293 292 0
-293 693 0
294 -819 -291 0
-294 819 0
-294 291 0
295 -188 -703 0
-295 188 0
-295 703 0
296 -820 -294 0
-296 820 0
-296 294 0
297 -39 -733 0
-297 39 0
-297 733 0
298 -297 -706 0
-298 297 0
-298 706 0
299 -821 -296 0
-299 821 0
-299 296 0
300 -47 -42 0
-300 47 0
-300 42 0
301 -300 -28 0
-301 300 0
-301 28 0
302 -822 -299 0
-302 822 0
-302 299 0
303 -4 -2 0
-303 4 0
-303 2 0
304 -303 -786 0
-304 303 0
-304 786 0
305 -823 -302 0
-305 823 0
-305 302 0
306 -46 -38 0
-306 46 0
-306 38 0
307 -306 -781 0
-307 306 0
-307 781 0
308 -824 -305 0
-308 824 0
-308 305 0
309 -771 -733 0
-309 771 0
-309 733 0
310 -309 -774 0
-310 309 0
-310 774 0
311 -825 -308 0
-311 825 0
-311 308 0
312 -727 -16 0
-312 727 0
-312 16 0
313 -312 -4 0
-313 312 0
-313 4 0
314 -826 -311 0
-314 826 0
-314 311 0
315 -49 -698 0
-315 49 0
-315 698 0
316 -315 -32 0
-316 315 0
-316 32 0
317 -827 -314 0
-317 827 0
-317 314 0
318 -733 -701 0
-318 733 0
-318 701 0
319 -318 -33 0
-319 318 0
-319 33 0
320 -828 -317 0
-320 828 0
-320 317 0
321 -716 -9 0
-321 716 0
-321 9 0
322 -321 -47 0
-322 321 0
-322 47 0
323 -829 -320 0
-323 829 0
-323 320 0
324 -32 -2 0
-324 32 0
-324 2 0
325 -324 -22 0
-325 324 0
-325 22 0
326 -830 -323 0
-326 830 0
-326 323 0
327 -37 -741 0
-327 37 0
-327 741 0
328 -327 -715 0
-328 327 0
-328 715 0
329 -831 -326 0
-329 831 0
-329 326 0
330 -743 -698 0
-330 743 0
-330 698 0
331 -330 -806 0
-331 330 0
-331 806 0
332 -832 -329 0
-332 832 0
-332 329 0
333 -833 -10 0
-333 833 0
-333 10 0
334 -333 -12 0
-334 333 0
-334 12 0
335 -834 -332 0
-335 834 0
-335 332 0
336 -30 -833 0
-336 30 0
-336 833 0
337 -336 -730 0
-337 336 0
-337 730 0
338 -835 -335 0
-338 835 0
-338 335 0
339 -26 -698 0
-339 26 0
-339 698 0
340 -339 -15 0
-340 339 0
-340 15 0
341 -836 -338 0
-341 836 0
-341 338 0
342 -771 -4 0
-342 771 0
-342 4 0
343 -342 -30 0
-343 342 0
-343 30 0
344 -837 -341 0
-344 837 0
-344 341 0
345 -814 -692 0
-345 814 0
-345 692 0
346 -345 -699 0
-346 345 0
-346 699 0
347 -838 -344 0
-347 838 0
-347 344 0
348 -40 -738 0
-348 40 0
-348 738 0
349 -348 -25 0
-349 348 0
-349 25 0
350 -839 -347 0
-350 839 0
-350 347 0
351 -36 -719 0
-351 36 0
-351 719 0
352 -351 -702 0
-352 351 0
-352 702 0
353 -840 -350 0
-353 840 0
-353 350 0
354 -724 -749 0
-354 724 0
-354 749 0
355 -354 -44 0
-355 354 0
-355 44 0
356 -841 -353 0
-356 841 0
-356 353 0
357 -783 -16 0
-357 783 0
-357 16 0
358 -357 -8 0
-358 357 0
-358 8 0
359 -842 -356 0
-359 842 0
-359 356 0
360 -735 -766 0
-360 735 0
-360 766 0
361 -360 -806 0
-361 360 0
-361 806 0
362 -843 -359 0
-362 843 0
-362 359 0
363 -727 -30 0
-363 727 0
-363 30 0
364 -363 -749 0
-364 363 0
-364 749 0
365 -844 -362 0
-365 844 0
-365 362 0
366 -783 -4 0
-366 783 0
-366 4 0
367 -366 -2 0
-367 366 0
-367 2 0
368 -845 -365 0
-368 845 0
-368 365 0
369 -49 -755 0
-369 49 0
-369 755 0
370 -369 -4 0
-370 369 0
-370 4 0
371 -846 -368 0
-371 846 0
-371 368 0
372 -297 -17 0
-372 297 0
-372 17 0
373 -847 -371 0
-373 847 0
-373 371 0
374 -16 -2 0
-374 16 0
-374 2 0
375 -374 -5 0
-375 374 0
-375 5 0
376 -848 -373 0
-376 848 0
-376 373 0
377 -50 -729 0
-377 50 0
-377 729 0
378 -377 -706 0
-378 377 0
-378 706 0
379 -849 -376 0
-379 849 0
-379 376 0
380 -333 -41 0
-380 333 0
-380 41 0
381 -850 -379 0
-381 850 0
-381 379 0
382 -755 -771 0
-382 755 0
-382 771 0
383 -382 -751 0
-383 382 0
-383 751 0
384 -851 -381 0
-384 851 0
-384 381 0
385 -852 -4 0
-385 852 0
-385 4 0
386 -385 -27 0
-386 385 0
-386 27 0
387 -853 -384 0
-387 853 0
-387 384 0
388 -48 -776 0
-388 48 0
-388 776 0
389 -388 -786 0
-389 388 0
-389 786 0
390 -854 -387 0
-390 854 0
-390 387 0
391 -726 -9 0
-391 726 0
-391 9 0
392 -391 -36 0
-392 391 0
-392 36 0
393 -855 -390 0
-393 855 0
-393 390 0
394 -50 -783 0
-394 50 0
-394 783 0
395 -394 -47 0
-395 394 0
-395 47 0
396 -856 -393 0
-396 856 0
-396 393 0
397 -718 -5 0
-397 718 0
-397 5 0
398 -397 -33 0
-398 397 0
-398 33 0
399 -857 -396 0
-399 857 0
-399 396 0
400 -755 -833 0
-400 755 0
-400 833 0
401 -400 -26 0
-401 400 0
-401 26 0
402 -858 -399 0
-402 858 0
-402 399 0
403 -705 -9 0
-403 705 0
-403 9 0
404 -403 -28 0
-404 403 0
-404 28 0
405 -859 -402 0
-405 859 0
-405 402 0
406 -37 -27 0
-406 37 0
-406 27 0
407 -406 -699 0
-407 406 0
-407 699 0
408 -860 -405 0
-408 860 0
-408 405 0
409 -46 -694 0
-409 46 0
-409 694 0
410 -409 -7 0
-410 409 0
-410 7 0
411 -861 -408 0
-411 861 0
-411 408 0
412 -806 -692 0
-412 806 0
-412 692 0
413 -412 -706 0
-413 412 0
-413 706 0
414 -862 -411 0
-414 862 0
-414 411 0
415 -41 -11 0
-415 41 0
-415 11 0
416 -415 -27 0
-416 415 0
-416 27 0
417 -863 -414 0
-417 863 0
-417 414 0
418 -377 -745 0
-418 377 0
-418 745 0
419 -864 -417 0
-419 864 0
-419 417 0
420 -46 -760 0
-420 46 0
-420 760 0
421 -420 -25 0
-421 420 0
-421 25 0
422 -865 -419 0
-422 865 0
-422 419 0
423 -14 -13 0
-423 14 0
-423 13 0
424 -423 -44 0
-424 423 0
-424 44 0
425 -866 -422 0
-425 866 0
-425 422 0
426 -718 -11 0
-426 718 0
-426 11 0
427 -426 -6 0
-427 426 0
-427 6 0
428 -867 -425 0
-428 867 0
-428 425 0
429 -19 -693 0
-429 19 0
-429 693 0
430 -429 -5 0
-430 429 0
-430 5 0
431 -868 -428 0
-431 868 0
-431 428 0
432 -104 -699 0
-432 104 0
-432 699 0
433 -869 -431 0
-433 869 0
-433 431 0
434 -760 -701 0
-434 760 0
-434 701 0
435 -434 -30 0
-435 434 0
-435 30 0
436 -870 -433 0
-436 870 0
-436 433 0
437 -783 -852 0
-437 783 0
-437 852 0
438 -437 -693 0
-438 437 0
-438 693 0
439 -871 -436 0
-439 871 0
-439 436 0
440 -47 -27 0
-440 47 0
-440 27 0
441 -440 -706 0
-441 440 0
-441 706 0
442 -872 -439 0
-442 872 0
-442 439 0
443 -283 -45 0
-443 283 0
-443 45 0
444 -873 -442 0
-444 873 0
-444 442 0
445 -18 -703 0
-445 18 0
-445 703 0
446 -445 -774 0
-446 445 0
-446 774 0
447 -874 -444 0
-447 874 0
-447 444 0
448 -733 -3 0
-448 733 0
-448 3 0
449 -448 -25 0
-449 448 0
-449 25 0
450 -875 -447 0
-450 875 0
-450 447 0
451 -706 -8 0
-451 706 0
-451 8 0
452 -451 -730 0
-452 451 0
-452 730 0
453 -876 -450 0
-453 876 0
-453 450 0
454 -45 -34 0
-454 45 0
-454 34 0
455 -454 -703 0
-455 454 0
-455 703 0
456 -877 -453 0
-456 877 0
-456 453 0
457 -783 -14 0
-457 783 0
-457 14 0
458 -457 -693 0
-458 457 0
-458 693 0
459 -878 -456 0
-459 878 0
-459 456 0
460 -852 -705 0
-460 852 0
-460 705 0
461 -460 -745 0
-461 460 0
-461 745 0
462 -879 -459 0
-462 879 0
-462 459 0
463 -723 -698 0
-463 723 0
-463 698 0
464 -463 -729 0
-464 463 0
-464 729 0
465 -880 -462 0
-465 880 0
-465 462 0
466 -774 -738 0
-466 774 0
-466 738 0
467 -466 -28 0
-467 466 0
-467 28 0
468 -881 -465 0
-468 881 0
-468 465 0
469 -882 -21 0
-469 882 0
-469 21 0
470 -469 -27 0
-470 469 0
-470 27 0
471 -883 -468 0
-471 883 0
-471 468 0
472 -735 -11 0
-472 735 0
-472 11 0
473 -472 -30 0
-473 472 0
-473 30 0
474 -884 -471 0
-474 884 0
-474 471 0
475 -729 -10 0
-475 729 0
-475 10 0
476 -475 -741 0
-476 475 0
-476 741 0
477 -885 -474 0
-477 885 0
-477 474 0
478 -778 -698 0
-478 778 0
-478 698 0
479 -478 -784 0
-479 478 0
-479 784 0
480 -886 -477 0
-480 886 0
-480 477 0
481 -784 -698 0
-481 784 0
-481 698 0
482 -481 -1 0
-482 481 0
-482 1 0
483 -887 -480 0
-483 887 0
-483 480 0
484 -738 -16 0
-484 738 0
-484 16 0
485 -484 -730 0
-485 484 0
-485 730 0
486 -888 -483 0
-486 888 0
-486 483 0
487 -698 -751 0
-487 698 0
-487 751 0
488 -487 -2 0
-488 487 0
-488 2 0
489 -889 -486 0
-489 889 0
-489 486 0
490 -17 -705 0
-490 17 0
-490 705 0
491 -490 -18 0
-491 490 0
-491 18 0
492 -890 -489 0
-492 890 0
-492 489 0
493 -726 -852 0
-493 726 0
-493 852 0
494 -493 -738 0
-494 493 0
-494 738 0
495 -891 -492 0
-495 891 0
-495 492 0
496 -194 -781 0
-496 194 0
-496 781 0
497 -892 -495 0
-497 892 0
-497 495 0
498 -45 -15 0
-498 45 0
-498 15 0
499 -498 -730 0
-499 498 0
-499 730 0
500 -893 -497 0
-500 893 0
-500 497 0
501 -39 -709 0
-501 39 0
-501 709 0
502 -501 -33 0
-502 501 0
-502 33 0
503 -894 -500 0
-503 894 0
-503 500 0
504 -36 -729 0
-504 36 0
-504 729 0
505 -504 -741 0
-505 504 0
-505 741 0
506 -895 -503 0
-506 895 0
-506 503 0
507 -11 -698 0
-507 11 0
-507 698 0
508 -507 -699 0
-508 507 0
-508 699 0
509 -896 -506 0
-509 896 0
-509 506 0
510 -705 -702 0
-510 705 0
-510 702 0
511 -510 -721 0
-511 510 0
-511 721 0
512 -897 -509 0
-512 897 0
-512 509 0
513 -778 -34 0
-513 778 0
-513 34 0
514 -513 -8 0
-514 513 0
-514 8 0
515 -898 -512 0
-515 898 0
-515 512 0
516 -784 -14 0
-516 784 0
-516 14 0
517 -516 -709 0
-517 516 0
-517 709 0
518 -899 -515 0
-518 899 0
-518 515 0
519 -16 -694 0
-519 16 0
-519 694 0
520 -519 -713 0
-520 519 0
-520 713 0
521 -900 -518 0
-521 900 0
-521 518 0
522 -718 -715 0
-522 718 0
-522 715 0
523 -522 -699 0
-523 522 0
-523 699 0
524 -901 -521 0
-524 901 0
-524 521 0
525 -783 -692 0
-525 783 0
-525 692 0
526 -525 -715 0
-526 525 0
-526 715 0
527 -902 -524 0
-527 902 0
-527 524 0
528 -738 -32 0
-528 738 0
-528 32 0
529 -528 -2 0
-529 528 0
-529 2 0
530 -903 -527 0
-530 903 0
-530 527 0
531 -719 -833 0
-531 719 0
-531 833 0
532 -531 -733 0
-532 531 0
-532 733 0
533 -904 -530 0
-533 904 0
-533 530 0
534 -784 -32 0
-534 784 0
-534 32 0
535 -534 -713 0
-535 534 0
-535 713 0
536 -905 -533 0
-536 905 0
-536 533 0
537 -727 -852 0
-537 727 0
-537 852 0
538 -537 -749 0
-538 537 0
-538 749 0
539 -906 -536 0
-539 906 0
-539 536 0
540 -745 -9 0
-540 745 0
-540 9 0
541 -540 -730 0
-541 540 0
-541 730 0
542 -907 -539 0
-542 907 0
-542 539 0
543 -743 -740 0
-543 743 0
-543 740 0
544 -543 -694 0
-544 543 0
-544 694 0
545 -908 -542 0
-545 908 0
-545 542 0
546 -42 -4 0
-546 42 0
-546 4 0
547 -546 -12 0
-547 546 0
-547 12 0
548 -909 -545 0
-548 909 0
-548 545 0
549 -48 -740 0
-549 48 0
-549 740 0
550 -549 -713 0
-550 549 0
-550 713 0
551 -910 -548 0
-551 910 0
-551 548 0
552 -48 -771 0
-552 48 0
-552 771 0
553 -552 -723 0
-553 552 0
-553 723 0
554 -911 -551 0
-554 911 0
-554 551 0
555 -743 -766 0
-555 743 0
-555 766 0
556 -555 -15 0
-556 555 0
-556 15 0
557 -912 -554 0
-557 912 0
-557 554 0
558 -760 -740 0
-558 760 0
-558 740 0
559 -558 -730 0
-559 558 0
-559 730 0
560 -913 -557 0
-560 913 0
-560 557 0
561 -49 -738 0
-561 49 0
-561 738 0
562 -561 -806 0
-562 561 0
-562 806 0
563 -914 -560 0
-563 914 0
-563 560 0
564 -771 -709 0
-564 771 0
-564 709 0
565 -564 -751 0
-565 564 0
-565 751 0
566 -915 -563 0
-566 915 0
-566 563 0
567 -760 -11 0
-567 760 0
-567 11 0
568 -567 -721 0
-568 567 0
-568 721 0
569 -916 -566 0
-569 916 0
-569 566 0
570 -783 -39 0
-570 783 0
-570 39 0
571 -570 -28 0
-571 570 0
-571 28 0
572 -917 -569 0
-572 917 0
-572 569 0
573 -40 -726 0
-573 40 0
-573 726 0
574 -573 -781 0
-574 573 0
-574 781 0
575 -918 -572 0
-575 918 0
-575 572 0
576 -510 -776 0
-576 510 0
-576 776 0
577 -919 -575 0
-577 919 0
-577 575 0
578 -149 -716 0
-578 149 0
-578 716 0
579 -920 -577 0
-579 920 0
-579 577 0
580 -14 -693 0
-580 14 0
-580 693 0
581 -580 -47 0
-581 580 0
-581 47 0
582 -921 -579 0
-582 921 0
-582 579 0
583 -16 -706 0
-583 16 0
-583 706 0
584 -583 -730 0
-584 583 0
-584 730 0
585 -922 -582 0
-585 922 0
-585 582 0
586 -719 -20 0
-586 719 0
-586 20 0
587 -586 -716 0
-587 586 0
-587 716 0
588 -923 -585 0
-588 923 0
-588 585 0
589 -784 -30 0
-589 784 0
-589 30 0
590 -589 -8 0
-590 589 0
-590 8 0
591 -924 -588 0
-591 924 0
-591 588 0
592 -42 -709 0
-592 42 0
-592 709 0
593 -592 -4 0
-593 592 0
-593 4 0
594 -925 -591 0
-594 925 0
-594 591 0
595 -33 -852 0
-595 33 0
-595 852 0
596 -595 -15 0
-596 595 0
-596 15 0
597 -926 -594 0
-597 926 0
-597 594 0
598 -760 -5 0
-598 760 0
-598 5 0
599 -598 -17 0
-599 598 0
-599 17 0
600 -927 -597 0
-600 927 0
-600 597 0
601 -22 -693 0
-601 22 0
-601 693 0
602 -601 -26 0
-602 601 0
-602 26 0
603 -928 -600 0
-603 928 0
-603 600 0
604 -783 -751 0
-604 783 0
-604 751 0
605 -604 -15 0
-605 604 0
-605 15 0
606 -929 -603 0
-606 929 0
-606 603 0
607 -36 -749 0
-607 36 0
-607 749 0
608 -607 -786 0
-608 607 0
-608 786 0
609 -930 -606 0
-609 930 0
-609 606 0
610 -19 -4 0
-610 19 0
-610 4 0
611 -610 -716 0
-611 610 0
-611 716 0
612 -931 -609 0
-612 931 0
-612 609 0
613 -39 -719 0
-613 39 0
-613 719 0
614 -613 -693 0
-614 613 0
-614 693 0
615 -932 -612 0
-615 932 0
-615 612 0
616 -709 -5 0
-616 709 0
-616 5 0
617 -616 -745 0
-617 616 0
-617 745 0
618 -933 -615 0
-618 933 0
-618 615 0
619 -10 -9 0
-619 10 0
-619 9 0
620 -619 -24 0
-620 619 0
-620 24 0
621 -934 -618 0
-621 934 0
-621 618 0
622 -38 -771 0
-622 38 0
-622 771 0
623 -622 -25 0
-623 622 0
-623 25 0
624 -935 -621 0
-624 935 0
-624 621 0
625 -721 -10 0
-625 721 0
-625 10 0
626 -625 -15 0
-626 625 0
-626 15 0
627 -936 -624 0
-627 936 0
-627 624 0
628 -45 -760 0
-628 45 0
-628 760 0
629 -628 -28 0
-629 628 0
-629 28 0
630 -937 -627 0
-630 937 0
-630 627 0
631 -41 -719 0
-631 41 0
-631 719 0
632 -631 -28 0
-632 631 0
-632 28 0
633 -938 -630 0
-633 938 0
-633 630 0
634 -43 -39 0
-634 43 0
-634 39 0
635 -634 -716 0
-635 634 0
-635 716 0
636 -939 -633 0
-636 939 0
-636 633 0
637 -940 -701 0
-637 940 0
-637 701 0
638 -637 -22 0
-638 637 0
-638 22 0
639 -941 -636 0
-639 941 0
-639 636 0
640 -784 -771 0
-640 784 0
-640 771 0
641 -640 -786 0
-641 640 0
-641 786 0
642 -942 -639 0
-642 942 0
-642 639 0
643 -758 -771 0
-643 758 0
-643 771 0
644 -643 -42 0
-644 643 0
-644 42 0
645 -943 -642 0
-645 943 0
-645 642 0
646 -34 -23 0
-646 34 0
-646 23 0
647 -646 -814 0
-647 646 0
-647 814 0
648 -944 -645 0
-648 944 0
-648 645 0
649 -628 -713 0
-649 628 0
-649 713 0
650 -945 -648 0
-650 945 0
-650 648 0
651 -41 -703 0
-651 41 0
-651 703 0
652 -651 -28 0
-652 651 0
-652 28 0
653 -946 -650 0
-653 946 0
-653 650 0
654 -740 -705 0
-654 740 0
-654 705 0
655 -654 -706 0
-655 654 0
-655 706 0
656 -947 -653 0
-656 947 0
-656 653 0
657 -21 -11 0
-657 21 0
-657 11 0
658 -657 -2 0
-658 657 0
-658 2 0
659 -948 -656 0
-659 948 0
-659 656 0
660 -735 -692 0
-660 735 0
-660 692 0
661 -660 -8 0
-661 660 0
-661 8 0
662 -949 -659 0
-662 949 0
-662 659 0
663 -703 -702 0
-663 703 0
-663 702 0
664 -663 -44 0
-664 663 0
-664 44 0
665 -950 -662 0
-665 950 0
-665 662 0
666 -40 -20 0
-666 40 0
-666 20 0
667 -666 -45 0
-667 666 0
-667 45 0
668 -951 -665 0
-668 951 0
-668 665 0
669 -38 -733 0
-669 38 0
-669 733 0
670 -669 -724 0
-670 669 0
-670 724 0
671 -952 -668 0
-671 952 0
-671 668 0
672 -776 -709 0
-672 776 0
-672 709 0
673 -672 -729 0
-673 672 0
-673 729 0
674 -953 -671 0
-674 953 0
-674 671 0
675 -16 -1 0
-675 16 0
-675 1 0
676 -675 -729 0
-676 675 0
-676 729 0
677 -954 -674 0
-677 954 0
-677 674 0
678 -738 -833 0
-678 738 0
-678 833 0
679 -678 -2 0
-679 678 0
-679 2 0
680 -955 -677 0
-680 955 0
-680 677 0
681 -48 -749 0
-681 48 0
-681 749 0
682 -681 -715 0
-682 681 0
-682 715 0
683 -956 -680 0
-683 956 0
-683 680 0
684 -330 -814 0
-684 330 0
-684 814 0
685 -957 -683 0
-685 957 0
-685 683 0
686 -719 -23 0
-686 719 0
-686 23 0
687 -686 -27 0
-687 686 0
-687 27 0
688 -958 -685 0
-688 958 0
-688 685 0
689 -709 -18 0
-689 709 0
-689 18 0
690 -689 -35 0
-690 689 0
-690 35 0
691 -959 -688 0
-691 959 0
-691 688 0
-692 -2 0
692 2 0
-693 -1 0
693 1 0
-694 -3 0
694 3 0
-695 -54 0
695 54 0
-696 -52 0
696 52 0
-697 -57 0
697 57 0
-698 -9 0
698 9 0
-699 -7 0
699 7 0
-700 -60 0
700 60 0
-701 -11 0
701 11 0
-702 -10 0
702 10 0
-703 -12 0
703 12 0
-704 -63 0
704 63 0
-705 -13 0
705 13 0
-706 -15 0
706 15 0
-707 -66 0
707 66 0
-708 -69 0
708 69 0
-709 -20 0
709 20 0
-710 -72 0
710 72 0
-711 -75 0
711 75 0
-712 -78 0
712 78 0
-713 -25 0
713 25 0
-714 -81 0
714 81 0
-715 -27 0
715 27 0
-716 -26 0
716 26 0
-717 -84 0
717 84 0
-718 -30 0
718 30 0
-719 -29 0
719 29 0
-720 -87 0
720 87 0
-721 -24 0
721 24 0
-722 -90 0
722 90 0
-723 -19 0
723 19 0
-724 -33 0
724 33 0
-725 -93 0
725 93 0
-726 -34 0
726 34 0
-727 -32 0
727 32 0
-728 -96 0
728 96 0
-729 -22 0
729 22 0
-730 -28 0
730 28 0
-731 -99 0
731 99 0
-732 -102 0
732 102 0
-733 -14 0
733 14 0
-734 -105 0
734 105 0
-735 -36 0
735 36 0
-736 -108 0
736 108 0
-737 -111 0
737 111 0
-738 -37 0
738 37 0
-739 -114 0
739 114 0
-740 -16 0
740 16 0
-741 -18 0
741 18 0
-742 -117 0
742 117 0
-743 -39 0
743 39 0
-744 -120 0
744 120 0
-745 -40 0
745 40 0
-746 -123 0
746 123 0
-747 -126 0
747 126 0
-748 -129 0
748 129 0
-749 -17 0
749 17 0
-750 -132 0
750 132 0
-751 -4 0
751 4 0
-752 -135 0
752 135 0
-753 -138 0
753 138 0
-754 -141 0
754 141 0
-755 -38 0
755 38 0
-756 -144 0
756 144 0
-757 -147 0
757 147 0
-758 -43 0
758 43 0
-759 -150 0
759 150 0
-760 -42 0
760 42 0
-761 -153 0
761 153 0
-762 -156 0
762 156 0
-763 -159 0
763 159 0
-764 -162 0
764 162 0
-765 -165 0
765 165 0
-766 -5 0
766 5 0
-767 -168 0
767 168 0
-768 -171 0
768 171 0
-769 -174 0
769 174 0
-770 -177 0
770 177 0
-771 -23 0
771 23 0
-772 -180 0
772 180 0
-773 -183 0
773 183 0
-774 -44 0
774 44 0
-775 -186 0
775 186 0
-776 -41 0
776 41 0
-777 -189 0
777 189 0
-778 -46 0
778 46 0
-779 -192 0
779 192 0
-780 -195 0
780 195 0
-781 -47 0
781 47 0
-782 -198 0
782 198 0
-783 -48 0
783 48 0
-784 -49 0
784 49 0
-785 -201 0
785 201 0
-786 -8 0
786 8 0
-787 -204 0
787 204 0
-788 -207 0
788 207 0
-789 -210 0
789 210 0
-790 -213 0
790 213 0
-791 -216 0
791 216 0
-792 -219 0
792 219 0
-793 -222 0
793 222 0
-794 -225 0
794 225 0
-795 -228 0
795 228 0
-796 -231 0
796 231 0
-797 -234 0
797 234 0
-798 -237 0
798 237 0
-799 -240 0
799 240 0
-800 -243 0
800 243 0
-801 -246 0
801 246 0
-802 -249 0
802 249 0
-803 -252 0
803 252 0
-804 -255 0
804 255 0
-805 -258 0
805 258 0
-806 -6 0
806 6 0
-807 -261 0
807 261 0
-808 -264 0
808 264 0
-809 -267 0
809 267 0
-810 -270 0
810 270 0
-811 -273 0
811 273 0
-812 -276 0
812 276 0
-813 -279 0
813 279 0
-814 -45 0
814 45 0
-815 -281 0
815 281 0
-816 -284 0
816 284 0
-817 -287 0
817 287 0
-818 -290 0
818 290 0
-819 -293 0
819 293 0
-820 -295 0
820 295 0
-821 -298 0
821 298 0
-822 -301 0
822 301 0
-823 -304 0
823 304 0
-824 -307 0
824 307 0
-825 -310 0
825 310 0
-826 -313 0
826 313 0
-827 -316 0
827 316 0
-828 -319 0
828 319 0
-829 -322 0
829 322 0
-830 -325 0
830 325 0
-831 -328 0
831 328 0
-832 -331 0
832 331 0
-833 -21 0
833 21 0
-834 -334 0
834 334 0
-835 -337 0
835 337 0
-836 -340 0
836 340 0
-837 -343 0
837 343 0
-838 -346 0
838 346 0
-839 -349 0
839 349 0
-840 -352 0
840 352 0
-841 -355 0
841 355 0
-842 -358 0
842 358 0
-843 -361 0
843 361 0
-844 -364 0
844 364 0
-845 -367 0
845 367 0
-846 -370 0
846 370 0
-847 -372 0
847 372 0
-848 -375 0
848 375 0
-849 -378 0
849 378 0
-850 -380 0
850 380 0
-851 -383 0
851 383 0
-852 -31 0
852 31 0
-853 -386 0
853 386 0
-854 -389 0
854 389 0
-855 -392 0
855 392 0
-856 -395 0
856 395 0
-857 -398 0
857 398 0
-858 -401 0
858 401 0
-859 -404 0
859 404 0
-860 -407 0
860 407 0
-861 -410 0
861 410 0
-862 -413 0
862 413 0
-863 -416 0
863 416 0
-864 -418 0
864 418 0
-865 -421 0
865 421 0
-866 -424 0
866 424 0
-867 -427 0
867 427 0
-868 -430 0
868 430 0
-869 -432 0
869 432 0
-870 -435 0
870 435 0
-871 -438 0
871 438 0
-872 -441 0
872 441 0
-873 -443 0
873 443 0
-874 -446 0
874 446 0
-875 -449 0
875 449 0
-876 -452 0
876 452 0
-877 -455 0
877 455 0
-878 -458 0
878 458 0
-879 -461 0
879 461 0
-880 -464 0
880 464 0
-881 -467 0
881 467 0
-882 -35 0
882 35 0
-883 -470 0
883 470 0
-884 -473 0
884 473 0
-885 -476 0
885 476 0
-886 -479 0
886 479 0
-887 -482 0
887 482 0
-888 -485 0
888 485 0
-889 -488 0
889 488 0
-890 -491 0
890 491 0
-891 -494 0
891 494 0
-892 -496 0
892 496 0
-893 -499 0
893 499 0
-894 -502 0
894 502 0
-895 -505 0
895 505 0
-896 -508 0
896 508 0
-897 -511 0
897 511 0
-898 -514 0
898 514 0
-899 -517 0
899 517 0
-900 -520 0
900 520 0
-901 -523 0
901 523 0
-902 -526 0
902 526 0
-903 -529 0
903 529 0
-904 -532 0
904 532 0
-905 -535 0
905 535 0
-906 -538 0
906 538 0
-907 -541 0
907 541 0
-908 -544 0
908 544 0
-909 -547 0
909 547 0
-910 -550 0
910 550 0
-911 -553 0
911 553 0
-912 -556 0
912 556 0
-913 -559 0
913 559 0
-914 -562 0
914 562 0
-915 -565 0
915 565 0
-916 -568 0
916 568 0
-917 -571 0
917 571 0
-918 -574 0
918 574 0
-919 -576 0
919 576 0
-920 -578 0
920 578 0
-921 -581 0
921 581 0
-922 -584 0
922 584 0
-923 -587 0
923 587 0
-924 -590 0
924 590 0
-925 -593 0
925 593 0
-926 -596 0
926 596 0
-927 -599 0
927 599 0
-928 -602 0
928 602 0
-929 -605 0
929 605 0
-930 -608 0
930 608 0
-931 -611 0
931 611 0
-932 -614 0
932 614 0
-933 -617 0
933 617 0
-934 -620 0
934 620 0
-935 -623 0
935 623 0
-936 -626 0
936 626 0
-937 -629 0
937 629 0
-938 -632 0
938 632 0
-939 -635 0
939 635 0
-940 -50 0
940 50 0
-941 -638 0
941 638 0
-942 -641 0
942 641 0
-943 -644 0
943 644 0
-944 -647 0
944 647 0
-945 -649 0
945 649 0
-946 -652 0
946 652 0
-947 -655 0
947 655 0
-948 -658 0
948 658 0
-949 -661 0
949 661 0
-950 -664 0
950 664 0
-951 -667 0
951 667 0
-952 -670 0
952 670 0
-953 -673 0
953 673 0
-954 -676 0
954 676 0
-955 -679 0
955 679 0
-956 -682 0
956 682 0
-957 -684 0
957 684 0
-958 -687 0
958 687 0
-959 -690 0
959 690 0
691 0
